160 134 197 127 20 199 14 82 42 6 53 113 120 91 194 95 163 105 112 152 55 25 93 142 48 63 21 37 97 128 89 114 39 1 74 2 172 139 77 108 161 79 123 186 43 65 171 196 155 80 126 116 72 7 140 132 183 58 75 144 173 198 8 11 5 170 9 147 92 16 49 69 137 84 145 56 60 176 178 131 138 61 162 90 124 135 192 24 109 143 73 22 104 153 36 52 149 125 64 27 107 136 18 81 174 102 106 159 151 98 175 30 167 76 103 101 156 31 28 38 0 68 188 100 85 122 40 66 29 191 45 32 177 59 47 181 67 17 133 19 96 110 10 70 115 15 182 57 88 86 12 150 118 157 4 54 23 130 185 35 180 119 87 41 99 111 146 34 44 33 26 62 164 195 148 187 71 141 94 129 169 154 189 190 78 166 158 168 83 184 179 121 165 13 50 193 51 46 3 117 

